debug.lp
\* test012 *\
Maximize
obj: w + x + 4 y + 9 z
Subject To
c1: x + y <= 5
c2: x + z >= 10
c3: - y + z = 7
c4: w >= 0
Bounds
x <= 4
-1 <= y <= 1
End
